[runlim] version:		1.10
[runlim] time limit:		311040000 seconds
[runlim] real time limit:	600 seconds
[runlim] space limit:		14000 MB
[runlim] argv[0]:		python3
[runlim] argv[1]:		-u
[runlim] argv[2]:		mip.py
[runlim] argv[3]:		TUD200.1
[runlim] start:			Sat Jan 24 19:54:14 2026
[runlim] main pid:		65720
Building MIP model...
[runlim] sample:		10.0 time, 10.2 real, 31.5 MB
Build time: 19.48s
Solving MIP (minimizing number of labels)...
Version identifier: 22.1.1.0 | 2022-11-28 | 9160aff4d
CPXPARAM_Read_DataCheck                          1
Legacy callback                                  i
Tried aggregator 2 times.
[runlim] sample:		20.2 time, 20.2 real, 105.8 MB
MIP Presolve eliminated 175458 rows and 2 columns.
MIP Presolve modified 11159 coefficients.
Aggregator did 3993 substitutions.
Reduced MIP has 11140 rows, 4039 columns, and 154019 nonzeros.
Reduced MIP has 4039 binaries, 0 generals, 0 SOSs, and 0 indicators.
Presolve time = 0.65 sec. (779.29 ticks)
Found incumbent of value 48.000000 after 0.79 sec. (1002.50 ticks)
Probing time = 0.01 sec. (2.77 ticks)
Tried aggregator 1 time.
Detecting symmetries...
MIP Presolve eliminated 2 rows and 0 columns.
MIP Presolve modified 4 coefficients.
Reduced MIP has 11137 rows, 4037 columns, and 154009 nonzeros.
Reduced MIP has 4037 binaries, 0 generals, 0 SOSs, and 0 indicators.
Presolve time = 0.10 sec. (144.23 ticks)
Probing time = 0.01 sec. (2.95 ticks)
Clique table members: 13247.
MIP emphasis: balance optimality and feasibility.
MIP search method: dynamic search.
Parallel mode: deterministic, using up to 12 threads.
Root relaxation solution time = 1.05 sec. (1024.41 ticks)

        Nodes                                         Cuts/
   Node  Left     Objective  IInf  Best Integer    Best Bound    ItCnt     Gap

*     0+    0                           48.0000        0.0000           100.00%
*     0+    0                           24.0000        0.0000           100.00%
*     0+    0                           22.0000        0.0000           100.00%
      0     0       12.0000   474       22.0000       12.0000     6292   45.45%

========== NEW INCUMBENT SOLUTION ==========
{1: 254, 2: 16, 3: 394, 4: 156, 5: 778, 6: 540, 7: 394, 8: 156, 9: 394, 10: 156, 11: 708, 12: 470, 13: 708, 14: 470, 15: 394, 16: 156, 17: 778, 18: 540, 19: 394, 20: 156, 21: 554, 22: 792, 23: 268, 24: 30, 25: 554, 26: 792, 27: 86, 28: 324, 29: 722, 30: 484, 31: 156, 32: 394, 33: 324, 34: 86, 35: 554, 36: 792, 37: 86, 38: 324, 39: 254, 40: 16, 41: 792, 42: 554, 43: 156, 44: 394, 45: 324, 46: 86, 47: 722, 48: 484, 49: 540, 50: 778, 51: 792, 52: 554, 53: 722, 54: 484, 55: 16, 56: 254, 57: 30, 58: 268, 59: 540, 60: 778, 61: 30, 62: 268, 63: 778, 64: 540, 65: 778, 66: 540, 67: 156, 68: 394, 69: 540, 70: 778, 71: 254, 72: 16, 73: 86, 74: 324, 75: 484, 76: 722, 77: 156, 78: 394, 79: 86, 80: 324, 81: 484, 82: 722, 83: 16, 84: 254, 85: 792, 86: 554, 87: 86, 88: 324, 89: 268, 90: 30, 91: 324, 92: 86, 93: 722, 94: 484, 95: 722, 96: 484, 97: 540, 98: 778, 99: 470, 100: 708, 101: 268, 102: 30, 103: 268, 104: 30, 105: 394, 106: 156, 107: 540, 108: 778, 109: 268, 110: 30, 111: 540, 112: 778, 113: 156, 114: 394, 115: 540, 116: 778, 117: 156, 118: 394, 119: 128, 120: 366, 121: 778, 122: 540, 123: 554, 124: 792, 125: 128, 126: 366, 127: 394, 128: 156, 129: 240, 130: 478, 131: 128, 132: 366, 133: 254, 134: 16, 135: 268, 136: 30, 137: 86, 138: 324, 139: 324, 140: 86, 141: 484, 142: 722, 143: 540, 144: 778, 145: 470, 146: 708, 147: 16, 148: 254, 149: 484, 150: 722, 151: 156, 152: 394, 153: 30, 154: 268, 155: 86, 156: 324, 157: 442, 158: 680, 159: 16, 160: 254, 161: 708, 162: 470, 163: 156, 164: 394, 165: 86, 166: 324, 167: 680, 168: 442, 169: 86, 170: 324, 171: 156, 172: 394, 173: 30, 174: 268, 175: 708, 176: 470, 177: 442, 178: 680, 179: 554, 180: 792, 181: 778, 182: 540, 183: 324, 184: 86, 185: 16, 186: 254, 187: 86, 188: 324, 189: 540, 190: 778, 191: 722, 192: 484, 193: 86, 194: 324, 195: 792, 196: 554, 197: 722, 198: 484, 199: 442, 200: 680}
Number of labels used: 22
Total time: 21.56 sec
Memory: 206.19 MB
=============================================

========== NEW INCUMBENT SOLUTION ==========
{1: 254, 2: 16, 3: 394, 4: 156, 5: 778, 6: 540, 7: 394, 8: 156, 9: 394, 10: 156, 11: 708, 12: 470, 13: 708, 14: 470, 15: 394, 16: 156, 17: 778, 18: 540, 19: 394, 20: 156, 21: 554, 22: 792, 23: 268, 24: 30, 25: 554, 26: 792, 27: 86, 28: 324, 29: 722, 30: 484, 31: 156, 32: 394, 33: 324, 34: 86, 35: 554, 36: 792, 37: 86, 38: 324, 39: 254, 40: 16, 41: 792, 42: 554, 43: 156, 44: 394, 45: 324, 46: 86, 47: 722, 48: 484, 49: 540, 50: 778, 51: 792, 52: 554, 53: 722, 54: 484, 55: 16, 56: 254, 57: 30, 58: 268, 59: 540, 60: 778, 61: 30, 62: 268, 63: 778, 64: 540, 65: 778, 66: 540, 67: 156, 68: 394, 69: 540, 70: 778, 71: 254, 72: 16, 73: 86, 74: 324, 75: 484, 76: 722, 77: 156, 78: 394, 79: 86, 80: 324, 81: 484, 82: 722, 83: 16, 84: 254, 85: 792, 86: 554, 87: 86, 88: 324, 89: 268, 90: 30, 91: 324, 92: 86, 93: 722, 94: 484, 95: 722, 96: 484, 97: 540, 98: 778, 99: 470, 100: 708, 101: 268, 102: 30, 103: 268, 104: 30, 105: 394, 106: 156, 107: 540, 108: 778, 109: 268, 110: 30, 111: 540, 112: 778, 113: 156, 114: 394, 115: 540, 116: 778, 117: 156, 118: 394, 119: 128, 120: 366, 121: 778, 122: 540, 123: 554, 124: 792, 125: 128, 126: 366, 127: 394, 128: 156, 129: 240, 130: 478, 131: 128, 132: 366, 133: 254, 134: 16, 135: 268, 136: 30, 137: 86, 138: 324, 139: 324, 140: 86, 141: 484, 142: 722, 143: 540, 144: 778, 145: 470, 146: 708, 147: 16, 148: 254, 149: 484, 150: 722, 151: 156, 152: 394, 153: 30, 154: 268, 155: 86, 156: 324, 157: 442, 158: 680, 159: 16, 160: 254, 161: 708, 162: 470, 163: 156, 164: 394, 165: 86, 166: 324, 167: 680, 168: 442, 169: 86, 170: 324, 171: 156, 172: 394, 173: 30, 174: 268, 175: 708, 176: 470, 177: 442, 178: 680, 179: 554, 180: 792, 181: 778, 182: 540, 183: 324, 184: 86, 185: 16, 186: 254, 187: 86, 188: 324, 189: 540, 190: 778, 191: 722, 192: 484, 193: 86, 194: 324, 195: 792, 196: 554, 197: 722, 198: 484, 199: 442, 200: 680}
Number of labels used: 22
Total time: 21.57 sec
Memory: 206.31 MB
=============================================
*     0+    0                           20.0000       12.0000            40.00%

========== NEW INCUMBENT SOLUTION ==========
{1: 254, 2: 16, 3: 442, 4: 680, 5: 142, 6: 380, 7: 428, 8: 666, 9: 268, 10: 30, 11: 16, 12: 254, 13: 792, 14: 554, 15: 540, 16: 778, 17: 792, 18: 554, 19: 16, 20: 254, 21: 554, 22: 792, 23: 268, 24: 30, 25: 554, 26: 792, 27: 86, 28: 324, 29: 722, 30: 484, 31: 380, 32: 142, 33: 380, 34: 142, 35: 554, 36: 792, 37: 16, 38: 254, 39: 680, 40: 442, 41: 142, 42: 380, 43: 428, 44: 666, 45: 324, 46: 86, 47: 680, 48: 442, 49: 380, 50: 142, 51: 666, 52: 428, 53: 778, 54: 540, 55: 554, 56: 792, 57: 30, 58: 268, 59: 792, 60: 554, 61: 86, 62: 324, 63: 86, 64: 324, 65: 778, 66: 540, 67: 792, 68: 554, 69: 442, 70: 680, 71: 666, 72: 428, 73: 86, 74: 324, 75: 484, 76: 722, 77: 778, 78: 540, 79: 380, 80: 142, 81: 142, 82: 380, 83: 428, 84: 666, 85: 792, 86: 554, 87: 16, 88: 254, 89: 540, 90: 778, 91: 324, 92: 86, 93: 722, 94: 484, 95: 722, 96: 484, 97: 268, 98: 30, 99: 254, 100: 16, 101: 540, 102: 778, 103: 268, 104: 30, 105: 254, 106: 16, 107: 540, 108: 778, 109: 268, 110: 30, 111: 540, 112: 778, 113: 16, 114: 254, 115: 324, 116: 86, 117: 666, 118: 428, 119: 254, 120: 16, 121: 30, 122: 268, 123: 86, 124: 324, 125: 128, 126: 366, 127: 428, 128: 666, 129: 380, 130: 142, 131: 128, 132: 366, 133: 380, 134: 142, 135: 268, 136: 30, 137: 142, 138: 380, 139: 666, 140: 428, 141: 484, 142: 722, 143: 540, 144: 778, 145: 30, 146: 268, 147: 554, 148: 792, 149: 30, 150: 268, 151: 680, 152: 442, 153: 268, 154: 30, 155: 86, 156: 324, 157: 442, 158: 680, 159: 792, 160: 554, 161: 16, 162: 254, 163: 380, 164: 142, 165: 86, 166: 324, 167: 428, 168: 666, 169: 86, 170: 324, 171: 680, 172: 442, 173: 16, 174: 254, 175: 442, 176: 680, 177: 442, 178: 680, 179: 792, 180: 554, 181: 792, 182: 554, 183: 324, 184: 86, 185: 254, 186: 16, 187: 380, 188: 142, 189: 540, 190: 778, 191: 792, 192: 554, 193: 86, 194: 324, 195: 792, 196: 554, 197: 722, 198: 484, 199: 428, 200: 666}
Number of labels used: 20
Total time: 26.43 sec
Memory: 243.10 MB
=============================================
      0     0       12.0000   244       20.0000    Cliques: 1     6298   40.00%

========== NEW INCUMBENT SOLUTION ==========
{1: 254, 2: 16, 3: 442, 4: 680, 5: 142, 6: 380, 7: 428, 8: 666, 9: 268, 10: 30, 11: 16, 12: 254, 13: 792, 14: 554, 15: 540, 16: 778, 17: 792, 18: 554, 19: 16, 20: 254, 21: 554, 22: 792, 23: 268, 24: 30, 25: 554, 26: 792, 27: 86, 28: 324, 29: 722, 30: 484, 31: 380, 32: 142, 33: 380, 34: 142, 35: 554, 36: 792, 37: 16, 38: 254, 39: 680, 40: 442, 41: 142, 42: 380, 43: 428, 44: 666, 45: 324, 46: 86, 47: 680, 48: 442, 49: 380, 50: 142, 51: 666, 52: 428, 53: 778, 54: 540, 55: 554, 56: 792, 57: 30, 58: 268, 59: 792, 60: 554, 61: 86, 62: 324, 63: 86, 64: 324, 65: 778, 66: 540, 67: 792, 68: 554, 69: 442, 70: 680, 71: 666, 72: 428, 73: 86, 74: 324, 75: 484, 76: 722, 77: 778, 78: 540, 79: 380, 80: 142, 81: 142, 82: 380, 83: 428, 84: 666, 85: 792, 86: 554, 87: 16, 88: 254, 89: 540, 90: 778, 91: 324, 92: 86, 93: 722, 94: 484, 95: 722, 96: 484, 97: 268, 98: 30, 99: 254, 100: 16, 101: 540, 102: 778, 103: 268, 104: 30, 105: 254, 106: 16, 107: 540, 108: 778, 109: 268, 110: 30, 111: 540, 112: 778, 113: 16, 114: 254, 115: 324, 116: 86, 117: 666, 118: 428, 119: 254, 120: 16, 121: 30, 122: 268, 123: 86, 124: 324, 125: 128, 126: 366, 127: 428, 128: 666, 129: 380, 130: 142, 131: 128, 132: 366, 133: 380, 134: 142, 135: 268, 136: 30, 137: 142, 138: 380, 139: 666, 140: 428, 141: 484, 142: 722, 143: 540, 144: 778, 145: 30, 146: 268, 147: 554, 148: 792, 149: 30, 150: 268, 151: 680, 152: 442, 153: 268, 154: 30, 155: 86, 156: 324, 157: 442, 158: 680, 159: 792, 160: 554, 161: 16, 162: 254, 163: 380, 164: 142, 165: 86, 166: 324, 167: 428, 168: 666, 169: 86, 170: 324, 171: 680, 172: 442, 173: 16, 174: 254, 175: 442, 176: 680, 177: 442, 178: 680, 179: 792, 180: 554, 181: 792, 182: 554, 183: 324, 184: 86, 185: 254, 186: 16, 187: 380, 188: 142, 189: 540, 190: 778, 191: 792, 192: 554, 193: 86, 194: 324, 195: 792, 196: 554, 197: 722, 198: 484, 199: 428, 200: 666}
Number of labels used: 20
Total time: 26.43 sec
Memory: 243.10 MB
=============================================
[runlim] sample:		42.1 time, 30.2 real, 258.7 MB
[runlim] sample:		62.1 time, 40.2 real, 264.8 MB
[runlim] sample:		82.1 time, 50.2 real, 264.9 MB

========== NEW INCUMBENT SOLUTION ==========
{1: 254, 2: 16, 3: 442, 4: 680, 5: 142, 6: 380, 7: 428, 8: 666, 9: 268, 10: 30, 11: 16, 12: 254, 13: 792, 14: 554, 15: 540, 16: 778, 17: 792, 18: 554, 19: 16, 20: 254, 21: 554, 22: 792, 23: 268, 24: 30, 25: 554, 26: 792, 27: 86, 28: 324, 29: 722, 30: 484, 31: 380, 32: 142, 33: 380, 34: 142, 35: 554, 36: 792, 37: 16, 38: 254, 39: 680, 40: 442, 41: 142, 42: 380, 43: 428, 44: 666, 45: 324, 46: 86, 47: 680, 48: 442, 49: 380, 50: 142, 51: 666, 52: 428, 53: 778, 54: 540, 55: 554, 56: 792, 57: 30, 58: 268, 59: 792, 60: 554, 61: 86, 62: 324, 63: 86, 64: 324, 65: 778, 66: 540, 67: 792, 68: 554, 69: 442, 70: 680, 71: 666, 72: 428, 73: 86, 74: 324, 75: 484, 76: 722, 77: 778, 78: 540, 79: 380, 80: 142, 81: 142, 82: 380, 83: 428, 84: 666, 85: 792, 86: 554, 87: 16, 88: 254, 89: 540, 90: 778, 91: 324, 92: 86, 93: 722, 94: 484, 95: 722, 96: 484, 97: 268, 98: 30, 99: 254, 100: 16, 101: 540, 102: 778, 103: 268, 104: 30, 105: 254, 106: 16, 107: 540, 108: 778, 109: 268, 110: 30, 111: 540, 112: 778, 113: 16, 114: 254, 115: 324, 116: 86, 117: 666, 118: 428, 119: 254, 120: 16, 121: 30, 122: 268, 123: 86, 124: 324, 125: 128, 126: 366, 127: 428, 128: 666, 129: 380, 130: 142, 131: 128, 132: 366, 133: 380, 134: 142, 135: 268, 136: 30, 137: 142, 138: 380, 139: 666, 140: 428, 141: 484, 142: 722, 143: 540, 144: 778, 145: 30, 146: 268, 147: 554, 148: 792, 149: 30, 150: 268, 151: 680, 152: 442, 153: 268, 154: 30, 155: 86, 156: 324, 157: 442, 158: 680, 159: 792, 160: 554, 161: 16, 162: 254, 163: 380, 164: 142, 165: 86, 166: 324, 167: 428, 168: 666, 169: 86, 170: 324, 171: 680, 172: 442, 173: 16, 174: 254, 175: 442, 176: 680, 177: 442, 178: 680, 179: 792, 180: 554, 181: 792, 182: 554, 183: 324, 184: 86, 185: 254, 186: 16, 187: 380, 188: 142, 189: 540, 190: 778, 191: 792, 192: 554, 193: 86, 194: 324, 195: 792, 196: 554, 197: 722, 198: 484, 199: 428, 200: 666}
Number of labels used: 20
Total time: 54.81 sec
Memory: 265.96 MB
=============================================
      0     0       12.0000   762       20.0000     Cuts: 249    42324   40.00%

========== NEW INCUMBENT SOLUTION ==========
{1: 254, 2: 16, 3: 442, 4: 680, 5: 142, 6: 380, 7: 428, 8: 666, 9: 268, 10: 30, 11: 16, 12: 254, 13: 792, 14: 554, 15: 540, 16: 778, 17: 792, 18: 554, 19: 16, 20: 254, 21: 554, 22: 792, 23: 268, 24: 30, 25: 554, 26: 792, 27: 86, 28: 324, 29: 722, 30: 484, 31: 380, 32: 142, 33: 380, 34: 142, 35: 554, 36: 792, 37: 16, 38: 254, 39: 680, 40: 442, 41: 142, 42: 380, 43: 428, 44: 666, 45: 324, 46: 86, 47: 680, 48: 442, 49: 380, 50: 142, 51: 666, 52: 428, 53: 778, 54: 540, 55: 554, 56: 792, 57: 30, 58: 268, 59: 792, 60: 554, 61: 86, 62: 324, 63: 86, 64: 324, 65: 778, 66: 540, 67: 792, 68: 554, 69: 442, 70: 680, 71: 666, 72: 428, 73: 86, 74: 324, 75: 484, 76: 722, 77: 778, 78: 540, 79: 380, 80: 142, 81: 142, 82: 380, 83: 428, 84: 666, 85: 792, 86: 554, 87: 16, 88: 254, 89: 540, 90: 778, 91: 324, 92: 86, 93: 722, 94: 484, 95: 722, 96: 484, 97: 268, 98: 30, 99: 254, 100: 16, 101: 540, 102: 778, 103: 268, 104: 30, 105: 254, 106: 16, 107: 540, 108: 778, 109: 268, 110: 30, 111: 540, 112: 778, 113: 16, 114: 254, 115: 324, 116: 86, 117: 666, 118: 428, 119: 254, 120: 16, 121: 30, 122: 268, 123: 86, 124: 324, 125: 128, 126: 366, 127: 428, 128: 666, 129: 380, 130: 142, 131: 128, 132: 366, 133: 380, 134: 142, 135: 268, 136: 30, 137: 142, 138: 380, 139: 666, 140: 428, 141: 484, 142: 722, 143: 540, 144: 778, 145: 30, 146: 268, 147: 554, 148: 792, 149: 30, 150: 268, 151: 680, 152: 442, 153: 268, 154: 30, 155: 86, 156: 324, 157: 442, 158: 680, 159: 792, 160: 554, 161: 16, 162: 254, 163: 380, 164: 142, 165: 86, 166: 324, 167: 428, 168: 666, 169: 86, 170: 324, 171: 680, 172: 442, 173: 16, 174: 254, 175: 442, 176: 680, 177: 442, 178: 680, 179: 792, 180: 554, 181: 792, 182: 554, 183: 324, 184: 86, 185: 254, 186: 16, 187: 380, 188: 142, 189: 540, 190: 778, 191: 792, 192: 554, 193: 86, 194: 324, 195: 792, 196: 554, 197: 722, 198: 484, 199: 428, 200: 666}
Number of labels used: 20
Total time: 54.82 sec
Memory: 265.96 MB
=============================================

========== NEW INCUMBENT SOLUTION ==========
{1: 254, 2: 16, 3: 442, 4: 680, 5: 142, 6: 380, 7: 428, 8: 666, 9: 268, 10: 30, 11: 16, 12: 254, 13: 792, 14: 554, 15: 540, 16: 778, 17: 792, 18: 554, 19: 16, 20: 254, 21: 554, 22: 792, 23: 268, 24: 30, 25: 554, 26: 792, 27: 86, 28: 324, 29: 722, 30: 484, 31: 380, 32: 142, 33: 380, 34: 142, 35: 554, 36: 792, 37: 16, 38: 254, 39: 680, 40: 442, 41: 142, 42: 380, 43: 428, 44: 666, 45: 324, 46: 86, 47: 680, 48: 442, 49: 380, 50: 142, 51: 666, 52: 428, 53: 778, 54: 540, 55: 554, 56: 792, 57: 30, 58: 268, 59: 792, 60: 554, 61: 86, 62: 324, 63: 86, 64: 324, 65: 778, 66: 540, 67: 792, 68: 554, 69: 442, 70: 680, 71: 666, 72: 428, 73: 86, 74: 324, 75: 484, 76: 722, 77: 778, 78: 540, 79: 380, 80: 142, 81: 142, 82: 380, 83: 428, 84: 666, 85: 792, 86: 554, 87: 16, 88: 254, 89: 540, 90: 778, 91: 324, 92: 86, 93: 722, 94: 484, 95: 722, 96: 484, 97: 268, 98: 30, 99: 254, 100: 16, 101: 540, 102: 778, 103: 268, 104: 30, 105: 254, 106: 16, 107: 540, 108: 778, 109: 268, 110: 30, 111: 540, 112: 778, 113: 16, 114: 254, 115: 324, 116: 86, 117: 666, 118: 428, 119: 254, 120: 16, 121: 30, 122: 268, 123: 86, 124: 324, 125: 128, 126: 366, 127: 428, 128: 666, 129: 380, 130: 142, 131: 128, 132: 366, 133: 380, 134: 142, 135: 268, 136: 30, 137: 142, 138: 380, 139: 666, 140: 428, 141: 484, 142: 722, 143: 540, 144: 778, 145: 30, 146: 268, 147: 554, 148: 792, 149: 30, 150: 268, 151: 680, 152: 442, 153: 268, 154: 30, 155: 86, 156: 324, 157: 442, 158: 680, 159: 792, 160: 554, 161: 16, 162: 254, 163: 380, 164: 142, 165: 86, 166: 324, 167: 428, 168: 666, 169: 86, 170: 324, 171: 680, 172: 442, 173: 16, 174: 254, 175: 442, 176: 680, 177: 442, 178: 680, 179: 792, 180: 554, 181: 792, 182: 554, 183: 324, 184: 86, 185: 254, 186: 16, 187: 380, 188: 142, 189: 540, 190: 778, 191: 792, 192: 554, 193: 86, 194: 324, 195: 792, 196: 554, 197: 722, 198: 484, 199: 428, 200: 666}
Number of labels used: 20
Total time: 58.90 sec
Memory: 267.19 MB
=============================================
      0     0       12.0000   118       20.0000    Cliques: 4    42379   40.00%

========== NEW INCUMBENT SOLUTION ==========
{1: 254, 2: 16, 3: 442, 4: 680, 5: 142, 6: 380, 7: 428, 8: 666, 9: 268, 10: 30, 11: 16, 12: 254, 13: 792, 14: 554, 15: 540, 16: 778, 17: 792, 18: 554, 19: 16, 20: 254, 21: 554, 22: 792, 23: 268, 24: 30, 25: 554, 26: 792, 27: 86, 28: 324, 29: 722, 30: 484, 31: 380, 32: 142, 33: 380, 34: 142, 35: 554, 36: 792, 37: 16, 38: 254, 39: 680, 40: 442, 41: 142, 42: 380, 43: 428, 44: 666, 45: 324, 46: 86, 47: 680, 48: 442, 49: 380, 50: 142, 51: 666, 52: 428, 53: 778, 54: 540, 55: 554, 56: 792, 57: 30, 58: 268, 59: 792, 60: 554, 61: 86, 62: 324, 63: 86, 64: 324, 65: 778, 66: 540, 67: 792, 68: 554, 69: 442, 70: 680, 71: 666, 72: 428, 73: 86, 74: 324, 75: 484, 76: 722, 77: 778, 78: 540, 79: 380, 80: 142, 81: 142, 82: 380, 83: 428, 84: 666, 85: 792, 86: 554, 87: 16, 88: 254, 89: 540, 90: 778, 91: 324, 92: 86, 93: 722, 94: 484, 95: 722, 96: 484, 97: 268, 98: 30, 99: 254, 100: 16, 101: 540, 102: 778, 103: 268, 104: 30, 105: 254, 106: 16, 107: 540, 108: 778, 109: 268, 110: 30, 111: 540, 112: 778, 113: 16, 114: 254, 115: 324, 116: 86, 117: 666, 118: 428, 119: 254, 120: 16, 121: 30, 122: 268, 123: 86, 124: 324, 125: 128, 126: 366, 127: 428, 128: 666, 129: 380, 130: 142, 131: 128, 132: 366, 133: 380, 134: 142, 135: 268, 136: 30, 137: 142, 138: 380, 139: 666, 140: 428, 141: 484, 142: 722, 143: 540, 144: 778, 145: 30, 146: 268, 147: 554, 148: 792, 149: 30, 150: 268, 151: 680, 152: 442, 153: 268, 154: 30, 155: 86, 156: 324, 157: 442, 158: 680, 159: 792, 160: 554, 161: 16, 162: 254, 163: 380, 164: 142, 165: 86, 166: 324, 167: 428, 168: 666, 169: 86, 170: 324, 171: 680, 172: 442, 173: 16, 174: 254, 175: 442, 176: 680, 177: 442, 178: 680, 179: 792, 180: 554, 181: 792, 182: 554, 183: 324, 184: 86, 185: 254, 186: 16, 187: 380, 188: 142, 189: 540, 190: 778, 191: 792, 192: 554, 193: 86, 194: 324, 195: 792, 196: 554, 197: 722, 198: 484, 199: 428, 200: 666}
Number of labels used: 20
Total time: 58.91 sec
Memory: 267.19 MB
=============================================
*     0+    0                           16.0000       12.0000            25.00%
*     0+    0                           14.0000       12.0000            14.29%
[runlim] sample:		103.3 time, 60.2 real, 279.7 MB
[runlim] sample:		123.3 time, 70.2 real, 279.7 MB

========== NEW INCUMBENT SOLUTION ==========
{1: 58, 2: 296, 3: 296, 4: 58, 5: 16, 6: 254, 7: 86, 8: 324, 9: 380, 10: 142, 11: 498, 12: 736, 13: 498, 14: 736, 15: 666, 16: 428, 17: 498, 18: 736, 19: 142, 20: 380, 21: 254, 22: 16, 23: 764, 24: 526, 25: 380, 26: 142, 27: 16, 28: 254, 29: 16, 30: 254, 31: 142, 32: 380, 33: 666, 34: 428, 35: 58, 36: 296, 37: 526, 38: 764, 39: 526, 40: 764, 41: 142, 42: 380, 43: 764, 44: 526, 45: 526, 46: 764, 47: 142, 48: 380, 49: 666, 50: 428, 51: 666, 52: 428, 53: 58, 54: 296, 55: 16, 56: 254, 57: 428, 58: 666, 59: 498, 60: 736, 61: 428, 62: 666, 63: 86, 64: 324, 65: 16, 66: 254, 67: 764, 68: 526, 69: 764, 70: 526, 71: 428, 72: 666, 73: 142, 74: 380, 75: 736, 76: 498, 77: 324, 78: 86, 79: 296, 80: 58, 81: 736, 82: 498, 83: 296, 84: 58, 85: 254, 86: 16, 87: 16, 88: 254, 89: 666, 90: 428, 91: 324, 92: 86, 93: 666, 94: 428, 95: 666, 96: 428, 97: 666, 98: 428, 99: 86, 100: 324, 101: 380, 102: 142, 103: 526, 104: 764, 105: 142, 106: 380, 107: 498, 108: 736, 109: 498, 110: 736, 111: 324, 112: 86, 113: 380, 114: 142, 115: 764, 116: 526, 117: 736, 118: 498, 119: 736, 120: 498, 121: 526, 122: 764, 123: 526, 124: 764, 125: 666, 126: 428, 127: 58, 128: 296, 129: 380, 130: 142, 131: 498, 132: 736, 133: 296, 134: 58, 135: 324, 136: 86, 137: 380, 138: 142, 139: 142, 140: 380, 141: 526, 142: 764, 143: 58, 144: 296, 145: 324, 146: 86, 147: 526, 148: 764, 149: 526, 150: 764, 151: 736, 152: 498, 153: 142, 154: 380, 155: 86, 156: 324, 157: 86, 158: 324, 159: 666, 160: 428, 161: 764, 162: 526, 163: 58, 164: 296, 165: 86, 166: 324, 167: 764, 168: 526, 169: 86, 170: 324, 171: 142, 172: 380, 173: 764, 174: 526, 175: 498, 176: 736, 177: 428, 178: 666, 179: 296, 180: 58, 181: 764, 182: 526, 183: 736, 184: 498, 185: 254, 186: 16, 187: 296, 188: 58, 189: 380, 190: 142, 191: 666, 192: 428, 193: 666, 194: 428, 195: 324, 196: 86, 197: 428, 198: 666, 199: 526, 200: 764}
Number of labels used: 14
Total time: 77.51 sec
Memory: 280.69 MB
=============================================
      0     0       12.0000   699       14.0000     Cuts: 149    76963   14.29%

========== NEW INCUMBENT SOLUTION ==========
{1: 58, 2: 296, 3: 296, 4: 58, 5: 16, 6: 254, 7: 86, 8: 324, 9: 380, 10: 142, 11: 498, 12: 736, 13: 498, 14: 736, 15: 666, 16: 428, 17: 498, 18: 736, 19: 142, 20: 380, 21: 254, 22: 16, 23: 764, 24: 526, 25: 380, 26: 142, 27: 16, 28: 254, 29: 16, 30: 254, 31: 142, 32: 380, 33: 666, 34: 428, 35: 58, 36: 296, 37: 526, 38: 764, 39: 526, 40: 764, 41: 142, 42: 380, 43: 764, 44: 526, 45: 526, 46: 764, 47: 142, 48: 380, 49: 666, 50: 428, 51: 666, 52: 428, 53: 58, 54: 296, 55: 16, 56: 254, 57: 428, 58: 666, 59: 498, 60: 736, 61: 428, 62: 666, 63: 86, 64: 324, 65: 16, 66: 254, 67: 764, 68: 526, 69: 764, 70: 526, 71: 428, 72: 666, 73: 142, 74: 380, 75: 736, 76: 498, 77: 324, 78: 86, 79: 296, 80: 58, 81: 736, 82: 498, 83: 296, 84: 58, 85: 254, 86: 16, 87: 16, 88: 254, 89: 666, 90: 428, 91: 324, 92: 86, 93: 666, 94: 428, 95: 666, 96: 428, 97: 666, 98: 428, 99: 86, 100: 324, 101: 380, 102: 142, 103: 526, 104: 764, 105: 142, 106: 380, 107: 498, 108: 736, 109: 498, 110: 736, 111: 324, 112: 86, 113: 380, 114: 142, 115: 764, 116: 526, 117: 736, 118: 498, 119: 736, 120: 498, 121: 526, 122: 764, 123: 526, 124: 764, 125: 666, 126: 428, 127: 58, 128: 296, 129: 380, 130: 142, 131: 498, 132: 736, 133: 296, 134: 58, 135: 324, 136: 86, 137: 380, 138: 142, 139: 142, 140: 380, 141: 526, 142: 764, 143: 58, 144: 296, 145: 324, 146: 86, 147: 526, 148: 764, 149: 526, 150: 764, 151: 736, 152: 498, 153: 142, 154: 380, 155: 86, 156: 324, 157: 86, 158: 324, 159: 666, 160: 428, 161: 764, 162: 526, 163: 58, 164: 296, 165: 86, 166: 324, 167: 764, 168: 526, 169: 86, 170: 324, 171: 142, 172: 380, 173: 764, 174: 526, 175: 498, 176: 736, 177: 428, 178: 666, 179: 296, 180: 58, 181: 764, 182: 526, 183: 736, 184: 498, 185: 254, 186: 16, 187: 296, 188: 58, 189: 380, 190: 142, 191: 666, 192: 428, 193: 666, 194: 428, 195: 324, 196: 86, 197: 428, 198: 666, 199: 526, 200: 764}
Number of labels used: 14
Total time: 77.52 sec
Memory: 280.69 MB
=============================================
[runlim] sample:		143.2 time, 80.2 real, 279.7 MB
[runlim] sample:		163.2 time, 90.2 real, 279.7 MB

========== NEW INCUMBENT SOLUTION ==========
{1: 58, 2: 296, 3: 296, 4: 58, 5: 16, 6: 254, 7: 86, 8: 324, 9: 380, 10: 142, 11: 498, 12: 736, 13: 498, 14: 736, 15: 666, 16: 428, 17: 498, 18: 736, 19: 142, 20: 380, 21: 254, 22: 16, 23: 764, 24: 526, 25: 380, 26: 142, 27: 16, 28: 254, 29: 16, 30: 254, 31: 142, 32: 380, 33: 666, 34: 428, 35: 58, 36: 296, 37: 526, 38: 764, 39: 526, 40: 764, 41: 142, 42: 380, 43: 764, 44: 526, 45: 526, 46: 764, 47: 142, 48: 380, 49: 666, 50: 428, 51: 666, 52: 428, 53: 58, 54: 296, 55: 16, 56: 254, 57: 428, 58: 666, 59: 498, 60: 736, 61: 428, 62: 666, 63: 86, 64: 324, 65: 16, 66: 254, 67: 764, 68: 526, 69: 764, 70: 526, 71: 428, 72: 666, 73: 142, 74: 380, 75: 736, 76: 498, 77: 324, 78: 86, 79: 296, 80: 58, 81: 736, 82: 498, 83: 296, 84: 58, 85: 254, 86: 16, 87: 16, 88: 254, 89: 666, 90: 428, 91: 324, 92: 86, 93: 666, 94: 428, 95: 666, 96: 428, 97: 666, 98: 428, 99: 86, 100: 324, 101: 380, 102: 142, 103: 526, 104: 764, 105: 142, 106: 380, 107: 498, 108: 736, 109: 498, 110: 736, 111: 324, 112: 86, 113: 380, 114: 142, 115: 764, 116: 526, 117: 736, 118: 498, 119: 736, 120: 498, 121: 526, 122: 764, 123: 526, 124: 764, 125: 666, 126: 428, 127: 58, 128: 296, 129: 380, 130: 142, 131: 498, 132: 736, 133: 296, 134: 58, 135: 324, 136: 86, 137: 380, 138: 142, 139: 142, 140: 380, 141: 526, 142: 764, 143: 58, 144: 296, 145: 324, 146: 86, 147: 526, 148: 764, 149: 526, 150: 764, 151: 736, 152: 498, 153: 142, 154: 380, 155: 86, 156: 324, 157: 86, 158: 324, 159: 666, 160: 428, 161: 764, 162: 526, 163: 58, 164: 296, 165: 86, 166: 324, 167: 764, 168: 526, 169: 86, 170: 324, 171: 142, 172: 380, 173: 764, 174: 526, 175: 498, 176: 736, 177: 428, 178: 666, 179: 296, 180: 58, 181: 764, 182: 526, 183: 736, 184: 498, 185: 254, 186: 16, 187: 296, 188: 58, 189: 380, 190: 142, 191: 666, 192: 428, 193: 666, 194: 428, 195: 324, 196: 86, 197: 428, 198: 666, 199: 526, 200: 764}
Number of labels used: 14
Total time: 95.78 sec
Memory: 280.69 MB
=============================================
[runlim] sample:		182.0 time, 100.2 real, 279.7 MB
[runlim] sample:		192.0 time, 110.2 real, 279.7 MB
Heuristic still looking.
[runlim] sample:		202.0 time, 120.2 real, 279.7 MB
*     0+    0                           12.0000       12.0000             0.00%
      0     0        cutoff             12.0000       12.0000   110820    0.00%
Elapsed time = 100.46 sec. (145098.64 ticks, tree = 0.01 MB, solutions = 7)

Clique cuts applied:  3

Root node processing (before b&c):
  Real time             =  100.46 sec. (145099.19 ticks)
Parallel b&c, 12 threads:
  Real time             =    0.00 sec. (0.00 ticks)
  Sync time (average)   =    0.00 sec.
  Wait time (average)   =    0.00 sec.
                          ------------
Total (root+branch&cut) =  100.46 sec. (145099.19 ticks)
Solution :
{16, 254, 142, 380, 554, 792, 142, 380, 114, 352, 442, 680, 736, 498, 498, 736, 352, 114, 16, 254, 352, 114, 736, 498, 352, 114, 380, 142, 352, 114, 442, 680, 498, 736, 254, 16, 442, 680, 380, 142, 16, 254, 254, 16, 114, 352, 142, 380, 736, 498, 142, 380, 16, 254, 16, 254, 554, 792, 16, 254, 142, 380, 16, 254, 554, 792, 352, 114, 792, 554, 380, 142, 142, 380, 792, 554, 254, 16, 352, 114, 736, 498, 442, 680, 142, 380, 254, 16, 498, 736, 736, 498, 680, 442, 554, 792, 736, 498, 16, 254, 114, 352, 442, 680, 114, 352, 114, 352, 442, 680, 254, 16, 736, 498, 680, 442, 680, 442, 792, 554, 736, 498, 680, 442, 736, 498, 142, 380, 142, 380, 498, 736, 554, 792, 114, 352, 736, 498, 498, 736, 442, 680, 352, 114, 680, 442, 554, 792, 554, 792, 680, 442, 380, 142, 792, 554, 380, 142, 498, 736, 792, 554, 254, 16, 16, 254, 442, 680, 16, 254, 114, 352, 352, 114, 498, 736, 442, 680, 114, 352, 498, 736, 792, 554, 352, 114, 380, 142, 554, 792, 554, 792, 16, 254, 380, 142, 142, 380, 442, 680}
Number of labels used: 12
[runlim] end:			Sat Jan 24 19:56:14 2026
[runlim] status:		ok
[runlim] result:		0
[runlim] children:		0
[runlim] real:			120.29 seconds
[runlim] time:			202.01 seconds
[runlim] space:			279.7 MB
[runlim] samples:		1200
